nr_shelves = 50;
shelves = [15, 15, 10];

Product = P(1..4);

product_size =
[|       Length: Width: Height:
 | P(1):      7,     8,      7
 | P(2):      8,    10,      4
 | P(3):     15,    10,      2
 | P(4):      9,     4,      7
 |];

nr_products = [20, 40, 10, 30];
